p tw 105 208
0 1
0 2
0 37
0 98
1 2
1 33
1 65
2 32
2 36
3 4
3 5
3 48
3 49
4 5
4 83
4 85
5 68
5 97
6 7
6 8
6 59
6 60
7 8
7 57
7 58
8 78
8 87
9 10
9 11
9 97
10 11
10 97
11 49
11 68
12 13
12 14
12 24
12 25
13 14
13 41
13 69
14 64
14 99
15 16
15 17
15 28
15 96
16 17
16 70
16 71
17 19
17 26
18 19
18 20
18 27
19 20
19 26
20 27
21 22
21 23
21 54
21 82
22 23
22 52
22 94
23 38
23 39
24 25
24 95
24 99
25 40
25 41
26 27
26 28
27 28
28 96
29 30
29 31
29 75
29 76
30 31
30 80
30 91
31 81
31 89
32 33
32 34
32 36
33 34
33 65
34 63
34 64
35 36
35 37
35 103
35 104
36 37
37 98
38 39
38 44
38 72
39 43
39 82
40 41
40 73
40 74
41 69
42 43
42 44
42 61
42 62
43 44
43 82
44 72
45 46
45 47
45 50
45 51
46 47
46 55
46 100
47 87
47 88
48 49
48 83
48 84
49 68
50 51
50 55
50 56
51 93
51 94
52 53
52 54
52 94
53 54
53 56
53 93
54 82
55 56
55 100
56 93
57 58
57 60
57 90
58 66
58 67
59 60
59 77
59 78
60 90
61 62
61 72
61 79
62 102
62 103
63 64
63 65
63 95
64 99
65 95
66 67
66 71
66 96
67 70
67 90
68 97
69 74
69 89
70 71
70 90
71 96
72 79
73 74
73 80
73 81
74 89
75 76
75 85
75 86
76 91
76 92
77 78
77 88
77 100
78 87
79 101
79 102
80 81
80 91
81 89
83 84
83 85
84 86
84 92
85 86
86 92
87 88
88 100
91 92
93 94
95 99
98 101
98 104
101 102
101 104
102 103
103 104
